27 6
15 16 13 10 14 13
1 0 0 0 0 0 0 3 2 3 4
6 10 0 0 10 0 0 1 6
6 5 0 0 0 0 6 4 5 27 7 8
6 0 0 0 5 9 0 1 27
7 0 0 0 0 3 10 1 9
9 4 0 0 0 0 0 1 10
11 2 0 0 0 0 4 1 27
11 5 3 10 0 0 3 2 11 12
1 0 9 0 0 0 6 1 16
8 0 10 4 0 0 0 1 14
7 3 0 5 2 1 0 1 15
1 0 0 5 0 10 0 3 13 27 27
6 0 10 7 10 2 0 1 18
9 3 0 10 0 0 0 2 27 20
7 5 2 0 9 0 0 1 27
6 8 0 0 0 0 0 2 17 19
6 0 4 0 0 9 0 1 21
8 0 10 0 0 1 9 1 27
9 1 0 0 0 4 10 2 23 24
2 5 7 0 0 9 8 1 22
4 0 9 10 0 0 0 1 26
2 0 2 4 1 8 5 1 25
7 6 0 0 0 3 0 1 25
6 6 8 0 0 9 2 1 26
6 8 3 0 0 0 0 1 27
6 0 0 7 0 0 0 1 27
0 0 0 0 0 0 0 0
